1349418
14, 39, 8, 28, 36, 12, 65, 7, 88, 60, 42, 106, 108, 78, 33, 55, 40, 68, 13, 93, 96, 19, 73, 50, 18, 76, 87, 62, 105, 99, 47, 71, 97, 11, 89, 91, 104, 54, 58, 102, 100, 53, 17, 15, 23, 24, 109, 90, 45, 82, 5, 1, 35, 98, 101, 34, 52, 29, 16, 107, 94, 46, 2, 81, 59, 51, 84, 32, 95, 43, 85, 61, 6, 30, 44, 20, 63, 25, 83, 3, 79, 67, 4, 74, 92, 103, 56, 80, 48, 21, 22, 64, 10, 49, 77, 66, 9, 37, 41, 38, 26, 72, 75, 57, 27, 86, 69, 70, 31
